p cnf 1240 2521
1 2 0
3 2 0
-1 -3 -2 0
2 -4 -5 0
4 -2 -5 0
5 -2 -4 0
4 2 5 0
-5 0
6 7 0
8 7 0
-6 -8 -7 0
-3 7 -9 0
3 -7 -9 0
9 -7 -3 0
3 7 9 0
-9 0
10 11 0
12 11 0
-10 -12 -11 0
-8 11 -13 0
8 -11 -13 0
13 -11 -8 0
8 11 13 0
-13 0
14 15 0
16 15 0
-14 -16 -15 0
-12 15 -17 0
12 -15 -17 0
17 -15 -12 0
12 15 17 0
-17 0
18 19 0
20 19 0
-18 -20 -19 0
-16 19 -21 0
16 -19 -21 0
21 -19 -16 0
16 19 21 0
-21 0
22 23 0
24 23 0
-22 -24 -23 0
-20 23 -25 0
20 -23 -25 0
25 -23 -20 0
20 23 25 0
-25 0
26 27 0
28 27 0
-26 -28 -27 0
-24 27 -29 0
24 -27 -29 0
29 -27 -24 0
24 27 29 0
-29 0
30 31 0
32 31 0
-30 -32 -31 0
-28 31 -33 0
28 -31 -33 0
33 -31 -28 0
28 31 33 0
-33 0
34 35 0
36 35 0
-34 -36 -35 0
-32 35 -37 0
32 -35 -37 0
37 -35 -32 0
32 35 37 0
-37 0
18 38 0
22 38 0
26 38 0
30 38 0
34 38 0
39 38 0
-40 0
-36 38 -41 0
36 -38 -41 0
41 -38 -36 0
36 38 41 0
-41 0
42 43 0
44 43 0
-42 -44 -43 0
43 -45 -46 0
45 -43 -46 0
46 -43 -45 0
45 43 46 0
-46 0
47 48 0
49 48 0
-47 -49 -48 0
-44 48 -50 0
44 -48 -50 0
50 -48 -44 0
44 48 50 0
-50 0
51 52 0
53 52 0
-51 -53 -52 0
-49 52 -54 0
49 -52 -54 0
54 -52 -49 0
49 52 54 0
-54 0
55 56 0
57 56 0
-55 -57 -56 0
-53 56 -58 0
53 -56 -58 0
58 -56 -53 0
53 56 58 0
-58 0
59 60 0
61 60 0
-59 -61 -60 0
-57 60 -62 0
57 -60 -62 0
62 -60 -57 0
57 60 62 0
-62 0
63 64 0
65 64 0
-63 -65 -64 0
-61 64 -66 0
61 -64 -66 0
66 -64 -61 0
61 64 66 0
-66 0
67 68 0
69 68 0
-67 -69 -68 0
-65 68 -70 0
65 -68 -70 0
70 -68 -65 0
65 68 70 0
-70 0
71 72 0
73 72 0
-71 -73 -72 0
-69 72 -74 0
69 -72 -74 0
74 -72 -69 0
69 72 74 0
-74 0
75 76 0
77 76 0
-75 -77 -76 0
-73 76 -78 0
73 -76 -78 0
78 -76 -73 0
73 76 78 0
-78 0
79 80 0
81 80 0
-79 -81 -80 0
-77 80 -82 0
77 -80 -82 0
82 -80 -77 0
77 80 82 0
-82 0
63 83 0
67 83 0
71 83 0
75 83 0
79 83 0
84 83 0
-85 0
-81 83 -86 0
81 -83 -86 0
86 -83 -81 0
81 83 86 0
-86 0
87 88 0
89 88 0
-87 -89 -88 0
88 -90 -91 0
90 -88 -91 0
91 -88 -90 0
90 88 91 0
-91 0
92 93 0
94 93 0
-92 -94 -93 0
-89 93 -95 0
89 -93 -95 0
95 -93 -89 0
89 93 95 0
-95 0
96 97 0
98 97 0
-96 -98 -97 0
-94 97 -99 0
94 -97 -99 0
99 -97 -94 0
94 97 99 0
-99 0
100 101 0
102 101 0
-100 -102 -101 0
-98 101 -103 0
98 -101 -103 0
103 -101 -98 0
98 101 103 0
-103 0
104 105 0
106 105 0
-104 -106 -105 0
-102 105 -107 0
102 -105 -107 0
107 -105 -102 0
102 105 107 0
-107 0
108 109 0
110 109 0
-108 -110 -109 0
-106 109 -111 0
106 -109 -111 0
111 -109 -106 0
106 109 111 0
-111 0
100 112 0
104 112 0
108 112 0
113 112 0
-114 0
-110 112 -115 0
110 -112 -115 0
115 -112 -110 0
110 112 115 0
-115 0
116 117 0
118 117 0
-116 -118 -117 0
117 -119 -120 0
119 -117 -120 0
120 -117 -119 0
119 117 120 0
-120 0
121 122 0
123 122 0
-121 -123 -122 0
-118 122 -124 0
118 -122 -124 0
124 -122 -118 0
118 122 124 0
-124 0
125 126 0
127 126 0
-125 -127 -126 0
-123 126 -128 0
123 -126 -128 0
128 -126 -123 0
123 126 128 0
-128 0
129 130 0
131 130 0
-129 -131 -130 0
-127 130 -132 0
127 -130 -132 0
132 -130 -127 0
127 130 132 0
-132 0
133 134 0
135 134 0
-133 -135 -134 0
-131 134 -136 0
131 -134 -136 0
136 -134 -131 0
131 134 136 0
-136 0
137 138 0
139 138 0
-137 -139 -138 0
-135 138 -140 0
135 -138 -140 0
140 -138 -135 0
135 138 140 0
-140 0
141 142 0
143 142 0
-141 -143 -142 0
-139 142 -144 0
139 -142 -144 0
144 -142 -139 0
139 142 144 0
-144 0
145 146 0
147 146 0
-145 -147 -146 0
-143 146 -148 0
143 -146 -148 0
148 -146 -143 0
143 146 148 0
-148 0
149 150 0
151 150 0
-149 -151 -150 0
-147 150 -152 0
147 -150 -152 0
152 -150 -147 0
147 150 152 0
-152 0
137 153 0
141 153 0
145 153 0
149 153 0
154 153 0
-155 0
-151 153 -156 0
151 -153 -156 0
156 -153 -151 0
151 153 156 0
-156 0
157 158 0
159 158 0
-157 -159 -158 0
158 -160 -161 0
160 -158 -161 0
161 -158 -160 0
160 158 161 0
-161 0
162 163 0
164 163 0
-162 -164 -163 0
-159 163 -165 0
159 -163 -165 0
165 -163 -159 0
159 163 165 0
-165 0
166 167 0
168 167 0
-166 -168 -167 0
-164 167 -169 0
164 -167 -169 0
169 -167 -164 0
164 167 169 0
-169 0
170 171 0
172 171 0
-170 -172 -171 0
-168 171 -173 0
168 -171 -173 0
173 -171 -168 0
168 171 173 0
-173 0
174 175 0
176 175 0
-174 -176 -175 0
-172 175 -177 0
172 -175 -177 0
177 -175 -172 0
172 175 177 0
-177 0
178 179 0
180 179 0
-178 -180 -179 0
-176 179 -181 0
176 -179 -181 0
181 -179 -176 0
176 179 181 0
-181 0
182 183 0
184 183 0
-182 -184 -183 0
-180 183 -185 0
180 -183 -185 0
185 -183 -180 0
180 183 185 0
-185 0
186 187 0
188 187 0
-186 -188 -187 0
-184 187 -189 0
184 -187 -189 0
189 -187 -184 0
184 187 189 0
-189 0
190 191 0
192 191 0
-190 -192 -191 0
-188 191 -193 0
188 -191 -193 0
193 -191 -188 0
188 191 193 0
-193 0
174 194 0
178 194 0
182 194 0
186 194 0
190 194 0
195 194 0
-196 0
-192 194 -197 0
192 -194 -197 0
197 -194 -192 0
192 194 197 0
-197 0
198 199 0
200 199 0
-198 -200 -199 0
199 -201 -202 0
201 -199 -202 0
202 -199 -201 0
201 199 202 0
-202 0
203 204 0
205 204 0
-203 -205 -204 0
-200 204 -206 0
200 -204 -206 0
206 -204 -200 0
200 204 206 0
-206 0
207 208 0
209 208 0
-207 -209 -208 0
-205 208 -210 0
205 -208 -210 0
210 -208 -205 0
205 208 210 0
-210 0
211 212 0
213 212 0
-211 -213 -212 0
-209 212 -214 0
209 -212 -214 0
214 -212 -209 0
209 212 214 0
-214 0
215 216 0
217 216 0
-215 -217 -216 0
-213 216 -218 0
213 -216 -218 0
218 -216 -213 0
213 216 218 0
-218 0
219 220 0
221 220 0
-219 -221 -220 0
-217 220 -222 0
217 -220 -222 0
222 -220 -217 0
217 220 222 0
-222 0
223 224 0
225 224 0
-223 -225 -224 0
-221 224 -226 0
221 -224 -226 0
226 -224 -221 0
221 224 226 0
-226 0
227 228 0
229 228 0
-227 -229 -228 0
-225 228 -230 0
225 -228 -230 0
230 -228 -225 0
225 228 230 0
-230 0
231 232 0
233 232 0
-231 -233 -232 0
-229 232 -234 0
229 -232 -234 0
234 -232 -229 0
229 232 234 0
-234 0
219 235 0
223 235 0
227 235 0
231 235 0
236 235 0
-237 0
-233 235 -238 0
233 -235 -238 0
238 -235 -233 0
233 235 238 0
-238 0
239 240 0
241 240 0
-239 -241 -240 0
240 -242 -243 0
242 -240 -243 0
243 -240 -242 0
242 240 243 0
-243 0
244 245 0
246 245 0
-244 -246 -245 0
-241 245 -247 0
241 -245 -247 0
247 -245 -241 0
241 245 247 0
-247 0
248 249 0
250 249 0
-248 -250 -249 0
-246 249 -251 0
246 -249 -251 0
251 -249 -246 0
246 249 251 0
-251 0
252 253 0
254 253 0
-252 -254 -253 0
-250 253 -255 0
250 -253 -255 0
255 -253 -250 0
250 253 255 0
-255 0
106 256 0
257 256 0
-106 -257 -256 0
-254 256 -258 0
254 -256 -258 0
258 -256 -254 0
254 256 258 0
-258 0
259 260 0
261 260 0
-259 -261 -260 0
260 -262 -263 0
262 -260 -263 0
263 -260 -262 0
262 260 263 0
-263 0
264 265 0
266 265 0
-264 -266 -265 0
-261 265 -267 0
261 -265 -267 0
267 -265 -261 0
261 265 267 0
-267 0
268 269 0
270 269 0
-268 -270 -269 0
-266 269 -271 0
266 -269 -271 0
271 -269 -266 0
266 269 271 0
-271 0
272 273 0
274 273 0
-272 -274 -273 0
-270 273 -275 0
270 -273 -275 0
275 -273 -270 0
270 273 275 0
-275 0
20 276 0
277 276 0
-20 -277 -276 0
-274 276 -278 0
274 -276 -278 0
278 -276 -274 0
274 276 278 0
-278 0
279 280 0
281 280 0
-279 -281 -280 0
280 -282 -283 0
282 -280 -283 0
283 -280 -282 0
282 280 283 0
-283 0
284 285 0
286 285 0
-284 -286 -285 0
-281 285 -287 0
281 -285 -287 0
287 -285 -281 0
281 285 287 0
-287 0
288 289 0
290 289 0
-288 -290 -289 0
-286 289 -291 0
286 -289 -291 0
291 -289 -286 0
286 289 291 0
-291 0
292 293 0
294 293 0
-292 -294 -293 0
-290 293 -295 0
290 -293 -295 0
295 -293 -290 0
290 293 295 0
-295 0
296 297 0
298 297 0
-296 -298 -297 0
-294 297 -299 0
294 -297 -299 0
299 -297 -294 0
294 297 299 0
-299 0
296 300 0
301 300 0
-296 -301 -300 0
-298 300 -302 0
298 -300 -302 0
302 -300 -298 0
298 300 302 0
-302 0
303 304 0
305 304 0
-303 -305 -304 0
304 -306 -307 0
306 -304 -307 0
307 -304 -306 0
306 304 307 0
-307 0
308 309 0
310 309 0
-308 -310 -309 0
-305 309 -311 0
305 -309 -311 0
311 -309 -305 0
305 309 311 0
-311 0
192 312 0
313 312 0
-192 -313 -312 0
-310 312 -314 0
310 -312 -314 0
314 -312 -310 0
310 312 314 0
-314 0
315 316 0
317 316 0
-315 -317 -316 0
-318 316 -319 0
318 -316 -319 0
319 -316 -318 0
318 316 319 0
-319 0
320 321 0
322 321 0
-320 -322 -321 0
-317 321 -323 0
317 -321 -323 0
323 -321 -317 0
317 321 323 0
-323 0
324 325 0
326 325 0
-324 -326 -325 0
-322 325 -327 0
322 -325 -327 0
327 -325 -322 0
322 325 327 0
-327 0
328 329 0
330 329 0
-328 -330 -329 0
-326 329 -331 0
326 -329 -331 0
331 -329 -326 0
326 329 331 0
-331 0
332 333 0
334 333 0
-332 -334 -333 0
-330 333 -335 0
330 -333 -335 0
335 -333 -330 0
330 333 335 0
-335 0
336 337 0
338 337 0
-336 -338 -337 0
-334 337 -339 0
334 -337 -339 0
339 -337 -334 0
334 337 339 0
-339 0
340 341 0
342 341 0
-340 -342 -341 0
-338 341 -343 0
338 -341 -343 0
343 -341 -338 0
338 341 343 0
-343 0
344 345 0
346 345 0
-344 -346 -345 0
-342 345 -347 0
342 -345 -347 0
347 -345 -342 0
342 345 347 0
-347 0
348 349 0
350 349 0
-348 -350 -349 0
-346 349 -351 0
346 -349 -351 0
351 -349 -346 0
346 349 351 0
-351 0
332 352 0
336 352 0
340 352 0
344 352 0
348 352 0
353 352 0
-354 0
-350 352 -355 0
350 -352 -355 0
355 -352 -350 0
350 352 355 0
-355 0
356 357 0
358 357 0
-356 -358 -357 0
-359 357 -360 0
359 -357 -360 0
360 -357 -359 0
359 357 360 0
-360 0
361 362 0
363 362 0
-361 -363 -362 0
-358 362 -364 0
358 -362 -364 0
364 -362 -358 0
358 362 364 0
-364 0
365 366 0
367 366 0
-365 -367 -366 0
-363 366 -368 0
363 -366 -368 0
368 -366 -363 0
363 366 368 0
-368 0
369 370 0
371 370 0
-369 -371 -370 0
-367 370 -372 0
367 -370 -372 0
372 -370 -367 0
367 370 372 0
-372 0
373 374 0
375 374 0
-373 -375 -374 0
-371 374 -376 0
371 -374 -376 0
376 -374 -371 0
371 374 376 0
-376 0
377 378 0
379 378 0
-377 -379 -378 0
-375 378 -380 0
375 -378 -380 0
380 -378 -375 0
375 378 380 0
-380 0
381 382 0
383 382 0
-381 -383 -382 0
-379 382 -384 0
379 -382 -384 0
384 -382 -379 0
379 382 384 0
-384 0
385 386 0
387 386 0
-385 -387 -386 0
-383 386 -388 0
383 -386 -388 0
388 -386 -383 0
383 386 388 0
-388 0
389 390 0
391 390 0
-389 -391 -390 0
-387 390 -392 0
387 -390 -392 0
392 -390 -387 0
387 390 392 0
-392 0
377 393 0
381 393 0
385 393 0
389 393 0
394 393 0
-395 0
-391 393 -396 0
391 -393 -396 0
396 -393 -391 0
391 393 396 0
-396 0
397 398 0
399 398 0
-397 -399 -398 0
-400 398 -401 0
400 -398 -401 0
401 -398 -400 0
400 398 401 0
-401 0
402 403 0
404 403 0
-402 -404 -403 0
-399 403 -405 0
399 -403 -405 0
405 -403 -399 0
399 403 405 0
-405 0
406 407 0
408 407 0
-406 -408 -407 0
-404 407 -409 0
404 -407 -409 0
409 -407 -404 0
404 407 409 0
-409 0
410 411 0
412 411 0
-410 -412 -411 0
-408 411 -413 0
408 -411 -413 0
413 -411 -408 0
408 411 413 0
-413 0
414 415 0
416 415 0
-414 -416 -415 0
-412 415 -417 0
412 -415 -417 0
417 -415 -412 0
412 415 417 0
-417 0
418 419 0
420 419 0
-418 -420 -419 0
-416 419 -421 0
416 -419 -421 0
421 -419 -416 0
416 419 421 0
-421 0
422 423 0
424 423 0
-422 -424 -423 0
-420 423 -425 0
420 -423 -425 0
425 -423 -420 0
420 423 425 0
-425 0
426 427 0
428 427 0
-426 -428 -427 0
-424 427 -429 0
424 -427 -429 0
429 -427 -424 0
424 427 429 0
-429 0
430 431 0
432 431 0
-430 -432 -431 0
-428 431 -433 0
428 -431 -433 0
433 -431 -428 0
428 431 433 0
-433 0
434 435 0
436 435 0
-434 -436 -435 0
-432 435 -437 0
432 -435 -437 0
437 -435 -432 0
432 435 437 0
-437 0
418 438 0
422 438 0
426 438 0
430 438 0
434 438 0
439 438 0
-440 0
-436 438 -441 0
436 -438 -441 0
441 -438 -436 0
436 438 441 0
-441 0
442 443 0
444 443 0
-442 -444 -443 0
-445 443 -446 0
445 -443 -446 0
446 -443 -445 0
445 443 446 0
-446 0
447 448 0
449 448 0
-447 -449 -448 0
-444 448 -450 0
444 -448 -450 0
450 -448 -444 0
444 448 450 0
-450 0
451 452 0
453 452 0
-451 -453 -452 0
-449 452 -454 0
449 -452 -454 0
454 -452 -449 0
449 452 454 0
-454 0
455 456 0
457 456 0
-455 -457 -456 0
-453 456 -458 0
453 -456 -458 0
458 -456 -453 0
453 456 458 0
-458 0
459 460 0
461 460 0
-459 -461 -460 0
-457 460 -462 0
457 -460 -462 0
462 -460 -457 0
457 460 462 0
-462 0
463 464 0
465 464 0
-463 -465 -464 0
-461 464 -466 0
461 -464 -466 0
466 -464 -461 0
461 464 466 0
-466 0
467 468 0
469 468 0
-467 -469 -468 0
-465 468 -470 0
465 -468 -470 0
470 -468 -465 0
465 468 470 0
-470 0
471 472 0
473 472 0
-471 -473 -472 0
-469 472 -474 0
469 -472 -474 0
474 -472 -469 0
469 472 474 0
-474 0
463 475 0
467 475 0
471 475 0
476 475 0
-477 0
-473 475 -478 0
473 -475 -478 0
478 -475 -473 0
473 475 478 0
-478 0
479 480 0
481 480 0
-479 -481 -480 0
-482 480 -483 0
482 -480 -483 0
483 -480 -482 0
482 480 483 0
-483 0
484 485 0
486 485 0
-484 -486 -485 0
-481 485 -487 0
481 -485 -487 0
487 -485 -481 0
481 485 487 0
-487 0
488 489 0
490 489 0
-488 -490 -489 0
-486 489 -491 0
486 -489 -491 0
491 -489 -486 0
486 489 491 0
-491 0
492 493 0
494 493 0
-492 -494 -493 0
-490 493 -495 0
490 -493 -495 0
495 -493 -490 0
490 493 495 0
-495 0
496 497 0
498 497 0
-496 -498 -497 0
-494 497 -499 0
494 -497 -499 0
499 -497 -494 0
494 497 499 0
-499 0
500 501 0
502 501 0
-500 -502 -501 0
-498 501 -503 0
498 -501 -503 0
503 -501 -498 0
498 501 503 0
-503 0
504 505 0
506 505 0
-504 -506 -505 0
-502 505 -507 0
502 -505 -507 0
507 -505 -502 0
502 505 507 0
-507 0
504 508 0
509 508 0
-504 -509 -508 0
-506 508 -510 0
506 -508 -510 0
510 -508 -506 0
506 508 510 0
-510 0
511 512 0
513 512 0
-511 -513 -512 0
-514 512 -515 0
514 -512 -515 0
515 -512 -514 0
514 512 515 0
-515 0
516 517 0
518 517 0
-516 -518 -517 0
-513 517 -519 0
513 -517 -519 0
519 -517 -513 0
513 517 519 0
-519 0
520 521 0
522 521 0
-520 -522 -521 0
-518 521 -523 0
518 -521 -523 0
523 -521 -518 0
518 521 523 0
-523 0
524 525 0
526 525 0
-524 -526 -525 0
-522 525 -527 0
522 -525 -527 0
527 -525 -522 0
522 525 527 0
-527 0
528 529 0
530 529 0
-528 -530 -529 0
-526 529 -531 0
526 -529 -531 0
531 -529 -526 0
526 529 531 0
-531 0
532 533 0
534 533 0
-532 -534 -533 0
-530 533 -535 0
530 -533 -535 0
535 -533 -530 0
530 533 535 0
-535 0
536 537 0
538 537 0
-536 -538 -537 0
-534 537 -539 0
534 -537 -539 0
539 -537 -534 0
534 537 539 0
-539 0
540 541 0
542 541 0
-540 -542 -541 0
-538 541 -543 0
538 -541 -543 0
543 -541 -538 0
538 541 543 0
-543 0
528 544 0
532 544 0
536 544 0
540 544 0
545 544 0
-546 0
-542 544 -547 0
542 -544 -547 0
547 -544 -542 0
542 544 547 0
-547 0
548 549 0
550 549 0
-548 -550 -549 0
-551 549 -552 0
551 -549 -552 0
552 -549 -551 0
551 549 552 0
-552 0
553 554 0
555 554 0
-553 -555 -554 0
-550 554 -556 0
550 -554 -556 0
556 -554 -550 0
550 554 556 0
-556 0
557 558 0
559 558 0
-557 -559 -558 0
-555 558 -560 0
555 -558 -560 0
560 -558 -555 0
555 558 560 0
-560 0
561 562 0
563 562 0
-561 -563 -562 0
-559 562 -564 0
559 -562 -564 0
564 -562 -559 0
559 562 564 0
-564 0
565 566 0
567 566 0
-565 -567 -566 0
-563 566 -568 0
563 -566 -568 0
568 -566 -563 0
563 566 568 0
-568 0
569 570 0
571 570 0
-569 -571 -570 0
-567 570 -572 0
567 -570 -572 0
572 -570 -567 0
567 570 572 0
-572 0
573 574 0
575 574 0
-573 -575 -574 0
-571 574 -576 0
571 -574 -576 0
576 -574 -571 0
571 574 576 0
-576 0
577 578 0
579 578 0
-577 -579 -578 0
-575 578 -580 0
575 -578 -580 0
580 -578 -575 0
575 578 580 0
-580 0
581 582 0
583 582 0
-581 -583 -582 0
-579 582 -584 0
579 -582 -584 0
584 -582 -579 0
579 582 584 0
-584 0
585 586 0
587 586 0
-585 -587 -586 0
-583 586 -588 0
583 -586 -588 0
588 -586 -583 0
583 586 588 0
-588 0
573 589 0
577 589 0
581 589 0
585 589 0
590 589 0
-591 0
-587 589 -592 0
587 -589 -592 0
592 -589 -587 0
587 589 592 0
-592 0
593 594 0
595 594 0
-593 -595 -594 0
-596 594 -597 0
596 -594 -597 0
597 -594 -596 0
596 594 597 0
-597 0
598 599 0
600 599 0
-598 -600 -599 0
-595 599 -601 0
595 -599 -601 0
601 -599 -595 0
595 599 601 0
-601 0
602 603 0
604 603 0
-602 -604 -603 0
-600 603 -605 0
600 -603 -605 0
605 -603 -600 0
600 603 605 0
-605 0
606 607 0
608 607 0
-606 -608 -607 0
-604 607 -609 0
604 -607 -609 0
609 -607 -604 0
604 607 609 0
-609 0
610 611 0
612 611 0
-610 -612 -611 0
-608 611 -613 0
608 -611 -613 0
613 -611 -608 0
608 611 613 0
-613 0
614 615 0
616 615 0
-614 -616 -615 0
-612 615 -617 0
612 -615 -617 0
617 -615 -612 0
612 615 617 0
-617 0
618 619 0
620 619 0
-618 -620 -619 0
-616 619 -621 0
616 -619 -621 0
621 -619 -616 0
616 619 621 0
-621 0
622 623 0
624 623 0
-622 -624 -623 0
-620 623 -625 0
620 -623 -625 0
625 -623 -620 0
620 623 625 0
-625 0
606 626 0
610 626 0
614 626 0
618 626 0
622 626 0
627 626 0
-628 0
-624 626 -629 0
624 -626 -629 0
629 -626 -624 0
624 626 629 0
-629 0
630 631 0
632 631 0
-630 -632 -631 0
-633 631 -634 0
633 -631 -634 0
634 -631 -633 0
633 631 634 0
-634 0
635 636 0
637 636 0
-635 -637 -636 0
-632 636 -638 0
632 -636 -638 0
638 -636 -632 0
632 636 638 0
-638 0
639 640 0
641 640 0
-639 -641 -640 0
-637 640 -642 0
637 -640 -642 0
642 -640 -637 0
637 640 642 0
-642 0
643 644 0
645 644 0
-643 -645 -644 0
-641 644 -646 0
641 -644 -646 0
646 -644 -641 0
641 644 646 0
-646 0
647 648 0
649 648 0
-647 -649 -648 0
-645 648 -650 0
645 -648 -650 0
650 -648 -645 0
645 648 650 0
-650 0
651 652 0
653 652 0
-651 -653 -652 0
-649 652 -654 0
649 -652 -654 0
654 -652 -649 0
649 652 654 0
-654 0
655 656 0
657 656 0
-655 -657 -656 0
-653 656 -658 0
653 -656 -658 0
658 -656 -653 0
653 656 658 0
-658 0
659 660 0
661 660 0
-659 -661 -660 0
-657 660 -662 0
657 -660 -662 0
662 -660 -657 0
657 660 662 0
-662 0
663 664 0
665 664 0
-663 -665 -664 0
-661 664 -666 0
661 -664 -666 0
666 -664 -661 0
661 664 666 0
-666 0
667 668 0
669 668 0
-667 -669 -668 0
-665 668 -670 0
665 -668 -670 0
670 -668 -665 0
665 668 670 0
-670 0
651 671 0
655 671 0
659 671 0
663 671 0
667 671 0
672 671 0
-673 0
-669 671 -674 0
669 -671 -674 0
674 -671 -669 0
669 671 674 0
-674 0
675 676 0
677 676 0
-675 -677 -676 0
-678 676 -679 0
678 -676 -679 0
679 -676 -678 0
678 676 679 0
-679 0
680 681 0
682 681 0
-680 -682 -681 0
-677 681 -683 0
677 -681 -683 0
683 -681 -677 0
677 681 683 0
-683 0
684 685 0
686 685 0
-684 -686 -685 0
-682 685 -687 0
682 -685 -687 0
687 -685 -682 0
682 685 687 0
-687 0
688 689 0
690 689 0
-688 -690 -689 0
-686 689 -691 0
686 -689 -691 0
691 -689 -686 0
686 689 691 0
-691 0
692 693 0
694 693 0
-692 -694 -693 0
-690 693 -695 0
690 -693 -695 0
695 -693 -690 0
690 693 695 0
-695 0
696 697 0
698 697 0
-696 -698 -697 0
-694 697 -699 0
694 -697 -699 0
699 -697 -694 0
694 697 699 0
-699 0
700 701 0
702 701 0
-700 -702 -701 0
-698 701 -703 0
698 -701 -703 0
703 -701 -698 0
698 701 703 0
-703 0
704 705 0
706 705 0
-704 -706 -705 0
-702 705 -707 0
702 -705 -707 0
707 -705 -702 0
702 705 707 0
-707 0
708 709 0
710 709 0
-708 -710 -709 0
-706 709 -711 0
706 -709 -711 0
711 -709 -706 0
706 709 711 0
-711 0
692 712 0
696 712 0
700 712 0
704 712 0
708 712 0
713 712 0
-714 0
-710 712 -715 0
710 -712 -715 0
715 -712 -710 0
710 712 715 0
-715 0
716 -717 0
718 716 0
717 -718 -716 0
1 -716 0
-1 716 0
719 -720 0
721 719 0
720 -721 -719 0
6 -719 0
-6 719 0
722 -723 0
724 722 0
723 -724 -722 0
10 -722 0
-10 722 0
725 -726 0
727 725 0
726 -727 -725 0
14 -725 0
-14 725 0
728 -729 0
730 728 0
729 -730 -728 0
18 -728 0
-18 728 0
731 -732 0
733 731 0
732 -733 -731 0
22 -731 0
-22 731 0
734 -735 0
736 734 0
735 -736 -734 0
26 -734 0
-26 734 0
737 -738 0
739 737 0
738 -739 -737 0
30 -737 0
-30 737 0
740 -741 0
742 740 0
741 -742 -740 0
34 -740 0
-34 740 0
743 -744 0
745 743 0
744 -745 -743 0
39 -743 0
-39 743 0
746 -747 0
748 746 0
747 -748 -746 0
42 -746 0
-42 746 0
749 -750 0
751 749 0
750 -751 -749 0
47 -749 0
-47 749 0
752 -753 0
754 752 0
753 -754 -752 0
51 -752 0
-51 752 0
755 -756 0
757 755 0
756 -757 -755 0
55 -755 0
-55 755 0
758 -759 0
760 758 0
759 -760 -758 0
59 -758 0
-59 758 0
761 -762 0
763 761 0
762 -763 -761 0
63 -761 0
-63 761 0
764 -765 0
766 764 0
765 -766 -764 0
67 -764 0
-67 764 0
767 -768 0
769 767 0
768 -769 -767 0
71 -767 0
-71 767 0
770 -771 0
772 770 0
771 -772 -770 0
75 -770 0
-75 770 0
773 -774 0
775 773 0
774 -775 -773 0
79 -773 0
-79 773 0
776 -777 0
778 776 0
777 -778 -776 0
84 -776 0
-84 776 0
779 -780 0
781 779 0
780 -781 -779 0
87 -779 0
-87 779 0
782 -783 0
784 782 0
783 -784 -782 0
92 -782 0
-92 782 0
785 -786 0
787 785 0
786 -787 -785 0
96 -785 0
-96 785 0
788 -789 0
790 788 0
789 -790 -788 0
100 -788 0
-100 788 0
791 -792 0
793 791 0
792 -793 -791 0
104 -791 0
-104 791 0
794 -795 0
796 794 0
795 -796 -794 0
108 -794 0
-108 794 0
797 -798 0
799 797 0
798 -799 -797 0
113 -797 0
-113 797 0
800 -801 0
802 800 0
801 -802 -800 0
116 -800 0
-116 800 0
803 -804 0
805 803 0
804 -805 -803 0
121 -803 0
-121 803 0
806 -807 0
808 806 0
807 -808 -806 0
125 -806 0
-125 806 0
809 -810 0
811 809 0
810 -811 -809 0
129 -809 0
-129 809 0
812 -813 0
814 812 0
813 -814 -812 0
133 -812 0
-133 812 0
815 -816 0
817 815 0
816 -817 -815 0
137 -815 0
-137 815 0
818 -819 0
820 818 0
819 -820 -818 0
141 -818 0
-141 818 0
821 -822 0
823 821 0
822 -823 -821 0
145 -821 0
-145 821 0
824 -825 0
826 824 0
825 -826 -824 0
149 -824 0
-149 824 0
827 -828 0
829 827 0
828 -829 -827 0
154 -827 0
-154 827 0
830 -831 0
832 830 0
831 -832 -830 0
157 -830 0
-157 830 0
833 -834 0
835 833 0
834 -835 -833 0
162 -833 0
-162 833 0
836 -837 0
838 836 0
837 -838 -836 0
166 -836 0
-166 836 0
839 -840 0
841 839 0
840 -841 -839 0
170 -839 0
-170 839 0
842 -843 0
844 842 0
843 -844 -842 0
174 -842 0
-174 842 0
845 -846 0
847 845 0
846 -847 -845 0
178 -845 0
-178 845 0
848 -849 0
850 848 0
849 -850 -848 0
182 -848 0
-182 848 0
851 -852 0
853 851 0
852 -853 -851 0
186 -851 0
-186 851 0
854 -855 0
856 854 0
855 -856 -854 0
190 -854 0
-190 854 0
857 -858 0
859 857 0
858 -859 -857 0
195 -857 0
-195 857 0
860 -861 0
862 860 0
861 -862 -860 0
198 -860 0
-198 860 0
863 -864 0
865 863 0
864 -865 -863 0
203 -863 0
-203 863 0
866 -867 0
868 866 0
867 -868 -866 0
207 -866 0
-207 866 0
869 -870 0
871 869 0
870 -871 -869 0
211 -869 0
-211 869 0
872 -873 0
874 872 0
873 -874 -872 0
215 -872 0
-215 872 0
875 -876 0
877 875 0
876 -877 -875 0
219 -875 0
-219 875 0
878 -879 0
880 878 0
879 -880 -878 0
223 -878 0
-223 878 0
881 -882 0
883 881 0
882 -883 -881 0
227 -881 0
-227 881 0
884 -885 0
886 884 0
885 -886 -884 0
231 -884 0
-231 884 0
887 -888 0
889 887 0
888 -889 -887 0
236 -887 0
-236 887 0
890 -891 0
892 890 0
891 -892 -890 0
239 -890 0
-239 890 0
893 -894 0
895 893 0
894 -895 -893 0
244 -893 0
-244 893 0
896 -897 0
898 896 0
897 -898 -896 0
248 -896 0
-248 896 0
899 -900 0
901 899 0
900 -901 -899 0
252 -899 0
-252 899 0
902 -903 0
904 902 0
903 -904 -902 0
257 -902 0
-257 902 0
905 -906 0
907 905 0
906 -907 -905 0
259 -905 0
-259 905 0
908 -909 0
910 908 0
909 -910 -908 0
264 -908 0
-264 908 0
911 -912 0
913 911 0
912 -913 -911 0
268 -911 0
-268 911 0
914 -915 0
916 914 0
915 -916 -914 0
272 -914 0
-272 914 0
917 -918 0
919 917 0
918 -919 -917 0
277 -917 0
-277 917 0
920 -921 0
922 920 0
921 -922 -920 0
279 -920 0
-279 920 0
923 -924 0
925 923 0
924 -925 -923 0
284 -923 0
-284 923 0
926 -927 0
928 926 0
927 -928 -926 0
288 -926 0
-288 926 0
929 -930 0
931 929 0
930 -931 -929 0
292 -929 0
-292 929 0
932 -933 0
934 932 0
933 -934 -932 0
296 -932 0
-296 932 0
935 -936 0
937 935 0
936 -937 -935 0
301 -935 0
-301 935 0
938 -939 0
940 938 0
939 -940 -938 0
303 -938 0
-303 938 0
941 -942 0
943 941 0
942 -943 -941 0
308 -941 0
-308 941 0
944 -945 0
946 944 0
945 -946 -944 0
313 -944 0
-313 944 0
947 -948 0
949 947 0
948 -949 -947 0
315 -947 0
-315 947 0
950 -951 0
952 950 0
951 -952 -950 0
320 -950 0
-320 950 0
953 -954 0
955 953 0
954 -955 -953 0
324 -953 0
-324 953 0
956 -957 0
958 956 0
957 -958 -956 0
328 -956 0
-328 956 0
959 -960 0
961 959 0
960 -961 -959 0
332 -959 0
-332 959 0
962 -963 0
964 962 0
963 -964 -962 0
336 -962 0
-336 962 0
965 -966 0
967 965 0
966 -967 -965 0
340 -965 0
-340 965 0
968 -969 0
970 968 0
969 -970 -968 0
344 -968 0
-344 968 0
971 -972 0
973 971 0
972 -973 -971 0
348 -971 0
-348 971 0
974 -975 0
976 974 0
975 -976 -974 0
353 -974 0
-353 974 0
977 -978 0
979 977 0
978 -979 -977 0
356 -977 0
-356 977 0
980 -981 0
982 980 0
981 -982 -980 0
361 -980 0
-361 980 0
983 -984 0
985 983 0
984 -985 -983 0
365 -983 0
-365 983 0
986 -987 0
988 986 0
987 -988 -986 0
369 -986 0
-369 986 0
989 -990 0
991 989 0
990 -991 -989 0
373 -989 0
-373 989 0
992 -993 0
994 992 0
993 -994 -992 0
377 -992 0
-377 992 0
995 -996 0
997 995 0
996 -997 -995 0
381 -995 0
-381 995 0
998 -999 0
1000 998 0
999 -1000 -998 0
385 -998 0
-385 998 0
1001 -1002 0
1003 1001 0
1002 -1003 -1001 0
389 -1001 0
-389 1001 0
1004 -1005 0
1006 1004 0
1005 -1006 -1004 0
394 -1004 0
-394 1004 0
1007 -1008 0
1009 1007 0
1008 -1009 -1007 0
397 -1007 0
-397 1007 0
1010 -1011 0
1012 1010 0
1011 -1012 -1010 0
402 -1010 0
-402 1010 0
1013 -1014 0
1015 1013 0
1014 -1015 -1013 0
406 -1013 0
-406 1013 0
1016 -1017 0
1018 1016 0
1017 -1018 -1016 0
410 -1016 0
-410 1016 0
1019 -1020 0
1021 1019 0
1020 -1021 -1019 0
414 -1019 0
-414 1019 0
1022 -1023 0
1024 1022 0
1023 -1024 -1022 0
418 -1022 0
-418 1022 0
1025 -1026 0
1027 1025 0
1026 -1027 -1025 0
422 -1025 0
-422 1025 0
1028 -1029 0
1030 1028 0
1029 -1030 -1028 0
426 -1028 0
-426 1028 0
1031 -1032 0
1033 1031 0
1032 -1033 -1031 0
430 -1031 0
-430 1031 0
1034 -1035 0
1036 1034 0
1035 -1036 -1034 0
434 -1034 0
-434 1034 0
1037 -1038 0
1039 1037 0
1038 -1039 -1037 0
439 -1037 0
-439 1037 0
1040 -1041 0
1042 1040 0
1041 -1042 -1040 0
442 -1040 0
-442 1040 0
1043 -1044 0
1045 1043 0
1044 -1045 -1043 0
447 -1043 0
-447 1043 0
1046 -1047 0
1048 1046 0
1047 -1048 -1046 0
451 -1046 0
-451 1046 0
1049 -1050 0
1051 1049 0
1050 -1051 -1049 0
455 -1049 0
-455 1049 0
1052 -1053 0
1054 1052 0
1053 -1054 -1052 0
459 -1052 0
-459 1052 0
1055 -1056 0
1057 1055 0
1056 -1057 -1055 0
463 -1055 0
-463 1055 0
1058 -1059 0
1060 1058 0
1059 -1060 -1058 0
467 -1058 0
-467 1058 0
1061 -1062 0
1063 1061 0
1062 -1063 -1061 0
471 -1061 0
-471 1061 0
1064 -1065 0
1066 1064 0
1065 -1066 -1064 0
476 -1064 0
-476 1064 0
1067 -1068 0
1069 1067 0
1068 -1069 -1067 0
479 -1067 0
-479 1067 0
1070 -1071 0
1072 1070 0
1071 -1072 -1070 0
484 -1070 0
-484 1070 0
1073 -1074 0
1075 1073 0
1074 -1075 -1073 0
488 -1073 0
-488 1073 0
1076 -1077 0
1078 1076 0
1077 -1078 -1076 0
492 -1076 0
-492 1076 0
1079 -1080 0
1081 1079 0
1080 -1081 -1079 0
496 -1079 0
-496 1079 0
1082 -1083 0
1084 1082 0
1083 -1084 -1082 0
500 -1082 0
-500 1082 0
1085 -1086 0
1087 1085 0
1086 -1087 -1085 0
504 -1085 0
-504 1085 0
1088 -1089 0
1090 1088 0
1089 -1090 -1088 0
509 -1088 0
-509 1088 0
1091 -1092 0
1093 1091 0
1092 -1093 -1091 0
511 -1091 0
-511 1091 0
1094 -1095 0
1096 1094 0
1095 -1096 -1094 0
516 -1094 0
-516 1094 0
1097 -1098 0
1099 1097 0
1098 -1099 -1097 0
520 -1097 0
-520 1097 0
1100 -1101 0
1102 1100 0
1101 -1102 -1100 0
524 -1100 0
-524 1100 0
1103 -1104 0
1105 1103 0
1104 -1105 -1103 0
528 -1103 0
-528 1103 0
1106 -1107 0
1108 1106 0
1107 -1108 -1106 0
532 -1106 0
-532 1106 0
1109 -1110 0
1111 1109 0
1110 -1111 -1109 0
536 -1109 0
-536 1109 0
1112 -1113 0
1114 1112 0
1113 -1114 -1112 0
540 -1112 0
-540 1112 0
1115 -1116 0
1117 1115 0
1116 -1117 -1115 0
545 -1115 0
-545 1115 0
1118 -1119 0
1120 1118 0
1119 -1120 -1118 0
548 -1118 0
-548 1118 0
1121 -1122 0
1123 1121 0
1122 -1123 -1121 0
553 -1121 0
-553 1121 0
1124 -1125 0
1126 1124 0
1125 -1126 -1124 0
557 -1124 0
-557 1124 0
1127 -1128 0
1129 1127 0
1128 -1129 -1127 0
561 -1127 0
-561 1127 0
1130 -1131 0
1132 1130 0
1131 -1132 -1130 0
565 -1130 0
-565 1130 0
1133 -1134 0
1135 1133 0
1134 -1135 -1133 0
569 -1133 0
-569 1133 0
1136 -1137 0
1138 1136 0
1137 -1138 -1136 0
573 -1136 0
-573 1136 0
1139 -1140 0
1141 1139 0
1140 -1141 -1139 0
577 -1139 0
-577 1139 0
1142 -1143 0
1144 1142 0
1143 -1144 -1142 0
581 -1142 0
-581 1142 0
1145 -1146 0
1147 1145 0
1146 -1147 -1145 0
585 -1145 0
-585 1145 0
1148 -1149 0
1150 1148 0
1149 -1150 -1148 0
590 -1148 0
-590 1148 0
1151 -1152 0
1153 1151 0
1152 -1153 -1151 0
593 -1151 0
-593 1151 0
1154 -1155 0
1156 1154 0
1155 -1156 -1154 0
598 -1154 0
-598 1154 0
1157 -1158 0
1159 1157 0
1158 -1159 -1157 0
602 -1157 0
-602 1157 0
1160 -1161 0
1162 1160 0
1161 -1162 -1160 0
606 -1160 0
-606 1160 0
1163 -1164 0
1165 1163 0
1164 -1165 -1163 0
610 -1163 0
-610 1163 0
1166 -1167 0
1168 1166 0
1167 -1168 -1166 0
614 -1166 0
-614 1166 0
1169 -1170 0
1171 1169 0
1170 -1171 -1169 0
618 -1169 0
-618 1169 0
1172 -1173 0
1174 1172 0
1173 -1174 -1172 0
622 -1172 0
-622 1172 0
1175 -1176 0
1177 1175 0
1176 -1177 -1175 0
627 -1175 0
-627 1175 0
1178 -1179 0
1180 1178 0
1179 -1180 -1178 0
630 -1178 0
-630 1178 0
1181 -1182 0
1183 1181 0
1182 -1183 -1181 0
635 -1181 0
-635 1181 0
1184 -1185 0
1186 1184 0
1185 -1186 -1184 0
639 -1184 0
-639 1184 0
1187 -1188 0
1189 1187 0
1188 -1189 -1187 0
643 -1187 0
-643 1187 0
1190 -1191 0
1192 1190 0
1191 -1192 -1190 0
647 -1190 0
-647 1190 0
1193 -1194 0
1195 1193 0
1194 -1195 -1193 0
651 -1193 0
-651 1193 0
1196 -1197 0
1198 1196 0
1197 -1198 -1196 0
655 -1196 0
-655 1196 0
1199 -1200 0
1201 1199 0
1200 -1201 -1199 0
659 -1199 0
-659 1199 0
1202 -1203 0
1204 1202 0
1203 -1204 -1202 0
663 -1202 0
-663 1202 0
1205 -1206 0
1207 1205 0
1206 -1207 -1205 0
667 -1205 0
-667 1205 0
1208 -1209 0
1210 1208 0
1209 -1210 -1208 0
672 -1208 0
-672 1208 0
1211 -1212 0
1213 1211 0
1212 -1213 -1211 0
675 -1211 0
-675 1211 0
1214 -1215 0
1216 1214 0
1215 -1216 -1214 0
680 -1214 0
-680 1214 0
1217 -1218 0
1219 1217 0
1218 -1219 -1217 0
684 -1217 0
-684 1217 0
1220 -1221 0
1222 1220 0
1221 -1222 -1220 0
688 -1220 0
-688 1220 0
1223 -1224 0
1225 1223 0
1224 -1225 -1223 0
692 -1223 0
-692 1223 0
1226 -1227 0
1228 1226 0
1227 -1228 -1226 0
696 -1226 0
-696 1226 0
1229 -1230 0
1231 1229 0
1230 -1231 -1229 0
700 -1229 0
-700 1229 0
1232 -1233 0
1234 1232 0
1233 -1234 -1232 0
704 -1232 0
-704 1232 0
1235 -1236 0
1237 1235 0
1236 -1237 -1235 0
708 -1235 0
-708 1235 0
1238 -1239 0
1240 1238 0
1239 -1240 -1238 0
713 -1238 0
-713 1238 0
-718 0
-721 0
-724 0
727 0
-730 0
733 0
736 0
739 0
742 0
-745 0
-748 0
-751 0
-754 0
-757 0
760 0
763 0
766 0
-769 0
-772 0
-775 0
-778 0
-781 0
-784 0
-787 0
790 0
-793 0
796 0
799 0
-802 0
-805 0
808 0
-811 0
-814 0
-817 0
-820 0
-823 0
826 0
829 0
-832 0
-835 0
-838 0
841 0
844 0
-847 0
850 0
-853 0
-856 0
-859 0
-862 0
-865 0
868 0
871 0
874 0
-877 0
880 0
-883 0
-886 0
-889 0
-892 0
895 0
-898 0
-901 0
904 0
907 0
-910 0
913 0
916 0
919 0
-922 0
-925 0
-928 0
-931 0
934 0
-937 0
940 0
-943 0
946 0
949 0
-952 0
955 0
-958 0
-961 0
964 0
967 0
970 0
973 0
-976 0
979 0
-982 0
-985 0
-988 0
991 0
-994 0
-997 0
1000 0
-1003 0
1006 0
1009 0
1012 0
1015 0
1018 0
-1021 0
1024 0
1027 0
1030 0
1033 0
-1036 0
1039 0
-1042 0
1045 0
1048 0
1051 0
1054 0
-1057 0
1060 0
1063 0
-1066 0
-1069 0
-1072 0
1075 0
-1078 0
1081 0
-1084 0
-1087 0
1090 0
1093 0
1096 0
1099 0
1102 0
-1105 0
-1108 0
-1111 0
1114 0
-1117 0
-1120 0
1123 0
1126 0
1129 0
1132 0
-1135 0
1138 0
1141 0
1144 0
1147 0
1150 0
-1153 0
-1156 0
1159 0
-1162 0
1165 0
-1168 0
1171 0
-1174 0
-1177 0
1180 0
-1183 0
-1186 0
1189 0
1192 0
-1195 0
-1198 0
-1201 0
1204 0
-1207 0
-1210 0
-1213 0
1216 0
1219 0
-1222 0
-1225 0
1228 0
1231 0
-1234 0
-1237 0
1240 0
4 0
45 0
90 0
119 0
160 0
201 0
242 0
262 0
282 0
306 0
-318 0
-359 0
-400 0
-445 0
-482 0
-514 0
-551 0
-596 0
-633 0
-678 0
